NAME: random101
TYPE: TSP
DIMENSION: 101
EDGE_WEIGHT_TYPE: EXPLICIT
EDGE_WEIGHT_FORMAT: FULL_MATRIX
EDGE_WEIGHT_SECTION
0 605 31 38 605 22 605 605 43 605 18 605 605 1 22 605 24 605 605 35 605 37 46 605 20 17 605 45 43 605 32 605 9 49 605 605 20 39 15 605 29 19 605 41 605 605 22 605 13 22 29 35 605 605 605 605 26 605 605 605 605 605 23 29 15 26 605 605 605 605 605 605 35 605 32 34 605 24 605 605 37 31 17 13 34 605 22 50 605 605 605 605 605 605 605 15 28 27 605 605 38
605 0 605 605 605 605 63 605 44 605 605 4 605 605 605 605 605 605 605 605 10 605 17 605 605 605 5 605 605 3 605 605 605 30 47 605 605 605 605 72 605 605 605 28 73 44 605 67 605 605 605 605 605 13 605 605 605 605 605 605 57 605 605 53 605 605 605 38 54 87 605 605 605 605 605 605 71 48 605 605 605 605 605 605 605 605 605 16 605 605 605 13 26 605 605 605 35 605 57 48 605
31 605 0 38 605 605 605 605 605 605 32 605 52 30 30 23 605 605 18 17 605 6 605 605 35 31 605 605 605 605 25 44 30 605 605 21 605 605 31 605 18 34 605 605 605 605 605 605 41 16 605 605 605 605 605 9 605 27 605 45 605 605 605 605 34 605 605 605 605 605 605 5 605 34 33 605 605 605 28 605 20 605 605 33 605 12 605 605 14 25 49 605 605 605 10 605 605 5 605 605 605
38 605 38 0 605 605 17 605 605 605 605 605 16 38 605 61 605 605 56 23 605 39 605 605 605 605 605 605 605 605 14 605 30 605 605 605 605 605 605 605 605 605 605 605 26 605 605 605 35 46 605 605 605 605 605 43 605 65 10 605 21 605 605 25 25 605 15 605 605 605 605 40 605 605 7 13 26 605 61 25 22 605 605 605 18 49 28 605 51 605 605 605 605 9 43 605 605 35 24 605 605
605 605 605 605 0 23 605 25 605 9 605 68 605 605 35 605 605 605 605 605 63 605 605 6 30 605 605 16 23 605 605 605 605 40 605 605 24 7 605 10 605 605 25 605 605 605 21 605 605 605 15 31 27 58 27 605 20 59 605 21 605 22 33 605 605 605 605 605 20 19 13 605 8 605 605 605 605 605 605 605 605 19 605 605 605 605 605 605 605 605 29 605 53 605 605 29 605 605 605 605 27
22 605 605 605 23 0 605 605 605 19 605 605 605 23 605 605 15 605 605 605 605 605 605 22 20 21 605 23 22 605 605 605 30 33 605 605 12 18 21 605 605 20 605 28 605 605 8 605 26 605 14 18 605 605 605 605 15 605 605 21 605 605 12 605 35 19 605 605 28 605 26 605 17 605 605 605 605 36 605 605 605 9 14 18 605 605 36 605 605 605 605 605 605 605 605 11 24 605 605 605 18
605 63 605 17 605 605 0 605 21 605 605 605 21 605 605 605 605 605 605 605 605 605 605 605 605 605 605 605 605 605 28 605 32 605 20 605 605 605 605 605 605 605 605 605 18 21 605 18 31 605 605 605 605 605 605 605 605 605 7 605 8 605 605 14 24 605 20 29 605 605 605 605 605 605 19 6 17 23 76 19 37 605 605 605 7 605 21 48 605 605 605 605 605 15 605 605 605 605 8 22 605
605 605 605 605 25 605 605 0 605 24 605 92 605 605 39 58 605 11 605 605 88 605 605 30 37 605 605 605 605 605 605 25 605 65 605 605 605 31 605 26 605 605 3 605 605 605 36 605 605 605 29 605 6 82 12 605 31 50 605 26 605 18 605 605 605 605 605 605 43 14 36 605 27 35 605 605 605 605 76 605 605 42 605 605 605 605 605 605 605 46 18 605 78 605 605 605 605 605 605 605 605
43 44 605 605 605 605 21 605 0 605 605 47 605 605 605 605 40 605 605 605 605 605 34 605 605 605 38 605 605 43 45 605 38 605 5 605 605 605 605 605 605 605 605 43 30 1 605 25 31 605 605 605 605 605 605 605 605 605 27 605 16 605 43 16 31 37 605 8 605 605 605 605 605 605 37 24 28 19 605 33 605 605 605 605 19 605 22 28 605 605 605 43 605 36 605 605 32 605 14 9 605
605 605 605 605 9 19 605 24 605 0 25 69 605 605 27 605 605 23 605 605 66 605 605 13 21 25 605 22 27 605 605 30 605 43 605 40 17 10 26 18 41 22 26 605 605 605 14 605 605 40 7 32 24 60 23 605 12 51 605 12 605 15 30 605 605 605 605 605 26 23 20 605 4 35 605 605 605 605 605 605 605 18 20 605 605 605 605 605 605 605 23 605 58 605 605 22 605 605 605 605 29
18 605 32 605 605 605 605 605 605 25 0 605 605 18 6 605 605 32 36 605 605 605 605 605 3 1 605 605 605 605 605 27 605 605 605 20 10 605 3 605 20 2 605 605 605 605 605 605 605 16 18 605 36 605 31 605 13 34 605 14 605 22 605 605 605 605 605 605 605 605 605 605 605 23 605 605 605 605 605 605 605 605 7 5 605 38 605 605 605 27 26 605 605 605 605 10 605 29 605 605 605
605 4 605 605 68 605 605 92 47 69 605 0 605 605 605 605 605 605 605 605 6 605 18 62 605 605 9 53 45 4 605 605 605 28 50 605 605 605 605 70 605 605 93 27 605 47 605 71 605 605 605 38 605 10 605 605 605 605 605 605 605 605 605 605 605 605 605 41 52 84 58 605 605 605 605 605 605 605 605 605 605 605 605 605 605 605 605 18 605 605 605 12 22 605 605 605 605 605 60 51 41
605 605 52 16 605 605 21 605 605 605 605 605 0 605 605 75 605 605 70 36 605 52 605 605 605 605 605 605 605 605 28 92 45 605 605 605 605 605 605 605 67 605 112 605 17 605 605 23 605 605 605 605 105 605 605 55 605 80 18 605 28 605 605 605 39 605 1 605 605 605 605 54 605 83 22 22 18 605 72 14 33 605 605 605 26 62 605 605 64 77 605 605 605 7 56 605 605 49 27 605 605
1 605 30 38 605 23 605 605 605 605 18 605 605 0 22 605 25 605 43 34 605 36 605 605 20 17 605 605 605 605 31 44 8 605 605 31 20 605 15 605 29 19 605 605 605 605 23 605 14 21 605 36 605 605 605 40 605 605 605 30 605 605 24 29 15 27 605 605 605 605 605 36 605 39 32 34 605 24 605 605 37 32 17 13 34 41 22 605 605 39 43 605 605 605 605 15 29 26 605 605 605
22 605 30 605 35 605 605 39 605 27 6 605 605 22 0 32 605 29 32 43 605 35 605 605 6 6 605 605 605 605 45 22 29 605 605 15 14 605 8 605 15 6 42 605 605 605 19 605 605 14 20 605 34 605 28 37 16 28 605 15 605 21 605 605 605 605 605 605 605 46 605 34 28 18 605 605 605 605 48 605 605 605 12 11 605 34 605 605 34 21 23 605 605 605 38 16 605 28 605 605 605
605 605 23 61 605 605 605 58 605 605 605 605 75 605 32 0 605 47 5 39 605 605 605 605 605 605 605 605 605 605 48 33 605 605 605 17 605 605 605 605 18 605 61 605 605 605 605 605 605 24 605 605 52 605 46 21 605 8 605 605 605 44 605 605 605 605 74 605 605 70 605 22 605 23 605 605 605 605 18 86 42 605 605 605 605 13 605 605 12 12 40 605 605 605 21 605 605 605 605 605 605
24 605 605 605 605 15 605 605 40 605 605 605 605 25 605 605 0 605 605 605 605 605 26 605 605 605 605 29 24 605 52 605 29 25 605 605 26 29 605 605 605 605 605 17 605 605 23 605 20 605 605 12 605 34 605 605 605 605 605 605 605 605 3 34 30 4 605 605 32 605 605 605 31 605 50 45 605 26 605 605 605 17 27 28 42 605 27 32 605 605 605 30 40 605 605 22 9 51 605 605 16
605 605 605 605 605 605 605 11 605 23 32 605 605 605 29 47 605 0 605 605 605 605 605 605 29 33 605 605 605 605 605 13 605 605 605 36 605 605 35 605 38 30 14 605 605 605 605 605 605 41 605 605 6 605 1 605 605 39 605 20 605 11 605 605 605 605 605 605 605 24 605 605 605 24 605 605 605 605 65 605 605 605 605 605 605 605 605 605 605 35 7 605 605 605 605 605 605 605 605 605 605
605 605 18 56 605 605 605 605 605 605 36 605 70 43 32 5 605 605 0 34 605 17 605 605 38 36 605 605 605 605 43 36 605 605 605 17 605 605 36 605 16 37 64 605 605 605 605 605 605 22 605 605 55 605 605 16 605 12 605 45 605 605 605 605 605 605 69 605 605 605 605 16 605 25 605 605 605 605 17 81 37 605 605 605 605 8 605 605 7 14 43 605 605 605 15 605 605 22 605 605 605
35 605 17 23 605 605 605 605 605 605 605 605 36 34 43 39 605 605 34 0 605 17 605 605 605 605 605 605 605 605 11 605 30 605 605 605 605 605 41 605 34 605 605 605 605 605 605 605 40 30 605 605 605 605 605 20 605 44 32 605 605 605 605 40 30 605 35 605 605 605 605 18 605 605 19 32 605 605 38 48 3 605 605 42 37 27 39 605 28 605 605 605 605 31 20 605 605 16 605 605 605
605 10 605 605 63 605 605 88 605 66 605 6 605 605 605 605 605 605 605 605 0 605 18 58 605 605 13 48 40 9 605 605 605 23 605 605 605 605 605 65 605 605 88 24 605 605 605 605 605 605 605 34 605 6 605 605 605 605 605 605 605 605 605 605 605 605 605 45 46 80 53 605 605 605 605 605 605 605 605 605 605 605 605 605 605 605 605 22 605 605 605 10 16 605 605 605 605 605 605 56 37
37 605 6 39 605 605 605 605 605 605 605 605 52 36 35 605 605 605 17 17 605 0 605 605 605 605 605 605 605 605 26 605 35 605 605 25 605 605 36 605 22 605 605 605 605 605 605 605 46 22 605 605 605 605 605 4 605 605 605 605 605 605 605 605 39 605 52 605 605 605 605 1 605 605 34 605 605 605 23 605 19 605 605 39 605 10 605 605 12 28 605 605 605 605 5 605 605 10 605 605 605
46 17 605 605 605 605 605 605 34 605 605 18 605 605 605 605 26 605 605 605 18 605 0 605 605 605 13 605 37 14 605 605 47 23 38 605 605 605 605 605 605 605 605 15 605 34 605 605 36 605 605 26 605 15 605 605 605 605 605 605 44 605 29 39 45 22 605 30 45 605 605 605 605 605 605 605 605 33 605 605 605 39 605 605 605 605 36 9 605 605 605 9 28 605 605 605 19 605 46 41 30
605 605 605 605 6 22 605 30 605 13 605 62 605 605 605 605 605 605 605 605 58 605 605 0 605 605 605 11 17 605 605 605 605 35 605 605 605 5 605 10 605 605 31 605 605 605 22 605 605 605 18 27 605 53 605 605 605 605 605 25 605 27 30 605 605 605 605 605 14 23 8 605 10 605 605 605 605 605 605 605 605 16 605 605 605 605 605 605 605 605 605 605 48 605 605 605 605 605 605 605 22
20 605 35 605 30 20 605 37 605 21 3 605 605 20 6 605 605 29 38 605 605 605 605 605 0 4 605 605 605 605 605 25 605 605 605 21 8 605 6 605 22 1 605 605 605 605 13 605 605 19 15 605 33 605 28 605 10 35 605 11 605 19 30 605 605 605 605 605 605 42 605 605 22 23 605 605 605 605 605 605 605 27 6 7 605 40 605 605 605 28 23 605 605 605 605 10 605 32 605 605 605
17 605 31 605 605 21 605 605 605 25 1 605 605 17 6 605 605 33 36 605 605 605 605 605 4 0 605 605 605 605 605 27 25 605 605 20 10 605 2 605 20 3 605 605 605 605 15 605 30 16 18 605 37 605 31 605 13 34 605 15 605 22 29 605 605 605 605 605 605 605 605 605 605 24 605 605 605 605 605 605 605 605 7 5 605 37 605 605 605 27 26 605 605 605 605 10 605 29 605 605 605
605 5 605 605 605 605 605 605 38 605 605 9 605 605 605 605 605 605 605 605 13 605 13 605 605 605 0 605 46 5 605 605 605 30 41 605 605 605 605 605 605 605 605 26 605 39 605 62 47 605 605 37 605 14 605 605 605 605 605 605 51 605 605 47 605 35 605 32 54 605 605 605 605 605 605 605 605 43 605 605 605 605 605 605 605 605 46 10 605 605 605 13 29 605 605 605 31 605 51 43 41
45 605 605 605 16 23 605 605 605 22 605 53 605 605 605 605 29 605 605 605 48 605 605 11 605 605 605 0 8 605 605 605 605 25 605 605 31 12 605 18 605 605 605 30 605 605 26 605 47 605 25 20 605 43 605 605 30 605 605 605 605 605 27 605 605 32 605 605 5 32 5 605 19 605 605 605 605 605 605 605 605 15 605 605 605 605 605 605 605 605 605 42 37 605 605 34 605 605 605 605 15
43 605 605 605 23 22 605 605 605 27 605 45 605 605 605 605 24 605 605 605 40 605 37 17 605 605 46 8 0 45 605 605 605 18 605 605 32 17 605 25 605 605 605 22 605 605 27 605 43 605 28 13 605 35 605 605 32 605 605 605 605 605 23 605 605 26 605 605 9 39 13 605 23 605 605 605 605 605 605 605 605 13 605 605 605 605 605 605 605 605 605 34 31 605 605 33 31 605 605 605 8
605 3 605 605 605 605 605 605 43 605 605 4 605 605 605 605 605 605 605 605 9 605 14 605 605 605 5 605 45 0 605 605 605 28 46 605 605 605 605 70 605 605 605 25 605 43 605 67 605 605 605 36 605 11 605 605 605 605 605 605 605 605 605 605 605 36 605 37 52 84 605 605 605 605 605 605 605 46 605 605 605 605 605 605 605 605 605 14 605 605 605 11 25 605 605 605 33 605 56 47 40
32 605 25 14 605 605 28 605 45 605 605 605 28 31 45 48 52 605 43 11 605 26 605 605 605 605 605 605 605 605 0 605 24 605 605 605 605 605 41 605 39 605 605 605 605 605 605 605 33 34 605 605 605 605 605 29 605 52 21 605 29 605 52 30 23 53 27 605 605 605 605 27 605 605 9 22 605 34 48 38 10 605 605 41 26 36 30 605 37 605 605 605 605 22 30 45 51 21 605 605 605
605 605 44 605 605 605 605 25 605 30 27 605 92 44 22 33 605 13 36 605 605 605 605 605 25 27 605 605 605 605 605 0 605 605 605 24 30 605 29 605 27 25 28 605 605 605 605 605 605 31 29 605 19 605 13 605 26 26 605 21 605 15 605 605 605 605 605 605 605 37 605 605 605 11 605 605 605 605 52 605 64 605 30 32 605 43 605 605 42 22 8 605 605 605 49 605 605 45 605 605 605
9 605 30 30 605 30 32 605 38 605 605 605 45 8 29 605 29 605 605 30 605 35 47 605 605 25 605 605 605 605 24 605 0 605 605 605 29 605 23 605 33 605 605 44 605 605 31 605 11 25 605 40 605 605 605 39 605 605 29 605 27 605 28 22 7 30 44 605 605 605 605 35 605 605 24 26 605 19 57 605 31 38 25 21 26 41 16 49 605 605 605 605 605 38 39 23 30 25 605 605 605
49 30 605 605 40 33 605 65 605 43 605 28 605 605 605 605 25 605 605 605 23 605 23 35 605 605 30 25 18 28 605 605 605 0 605 605 605 34 605 42 605 605 66 11 605 605 40 605 44 605 605 15 605 18 605 605 605 605 605 605 605 605 26 605 605 24 605 53 24 57 30 605 40 605 605 605 605 47 605 605 605 27 605 605 605 605 605 31 605 605 605 18 15 605 605 44 26 605 605 605 15
605 47 605 605 605 605 20 605 5 605 605 50 605 605 605 605 605 605 605 605 605 605 38 605 605 605 41 605 605 46 605 605 605 605 0 605 605 605 605 605 605 605 605 605 27 4 605 21 605 605 605 605 605 605 605 605 605 605 26 605 17 605 605 19 605 605 605 9 605 605 605 605 605 605 605 24 25 23 605 29 605 605 605 605 20 605 605 32 605 605 605 47 605 34 605 605 37 605 12 5 605
605 605 21 605 605 605 605 605 605 40 20 605 605 31 15 17 605 36 17 605 605 25 605 605 21 20 605 605 605 605 605 24 605 605 605 0 29 605 21 605 3 21 49 605 605 605 605 605 605 10 35 605 41 605 34 26 30 15 605 28 605 30 605 605 605 605 605 605 605 605 605 23 605 13 605 605 605 605 34 605 605 605 26 24 605 21 605 605 20 8 28 605 605 605 26 605 605 22 605 605 605
20 605 605 605 24 12 605 605 605 17 10 605 605 20 14 605 26 605 605 605 605 605 605 605 8 10 605 31 32 605 605 30 29 605 605 29 0 22 11 605 29 8 605 605 605 605 5 605 30 26 9 30 605 605 605 605 6 605 605 11 605 20 23 605 605 605 605 605 605 605 605 605 16 30 605 605 605 605 605 605 605 19 4 9 605 605 605 605 605 605 26 605 605 605 605 6 605 605 605 605 30
39 605 605 605 7 18 605 31 605 10 605 605 605 605 605 605 29 605 605 605 605 605 605 5 605 605 605 12 17 605 605 605 605 34 605 605 22 0 605 15 605 605 32 36 605 605 17 605 44 605 14 25 605 605 605 605 18 605 605 21 605 25 26 605 605 33 605 605 16 26 11 605 7 605 605 605 605 605 605 605 605 12 605 605 605 605 605 605 605 605 605 605 48 605 605 25 605 605 605 605 20
15 605 31 605 605 21 605 605 605 26 3 605 605 15 8 605 605 35 36 41 605 36 605 605 6 2 605 605 605 605 41 29 23 605 605 21 11 605 0 605 20 5 605 605 605 605 15 605 28 15 19 605 39 605 34 605 15 35 605 17 605 25 28 605 30 605 605 605 605 605 605 36 605 25 605 605 605 605 605 605 605 605 7 3 605 37 605 605 605 28 28 605 605 605 605 9 605 28 605 605 605
605 72 605 605 10 605 605 26 605 18 605 70 605 605 605 605 605 605 605 605 65 605 605 10 605 605 605 18 25 70 605 605 605 42 605 605 605 15 605 0 605 605 25 47 605 605 31 605 605 605 25 37 29 60 605 605 605 67 605 30 605 29 605 605 605 605 605 605 19 14 12 605 18 605 605 605 605 605 605 605 605 26 605 605 605 605 605 605 605 605 605 59 53 605 605 605 605 605 605 605 31
29 605 18 605 605 605 605 605 605 41 20 605 67 29 15 18 605 38 16 34 605 22 605 605 22 20 605 605 605 605 39 27 33 605 605 3 29 605 20 605 0 21 52 605 605 605 605 605 605 7 36 605 44 605 37 23 31 17 605 29 605 32 605 605 605 605 605 605 605 605 605 21 605 17 605 605 605 605 33 605 37 605 26 23 605 19 605 605 19 11 31 605 605 605 23 605 605 19 605 605 605
19 605 34 605 605 20 605 605 605 22 2 605 605 19 6 605 605 30 37 605 605 605 605 605 1 3 605 605 605 605 605 25 605 605 605 21 8 605 5 605 21 0 605 605 605 605 14 605 605 18 15 605 34 605 29 605 11 34 605 12 605 20 29 605 605 605 605 605 605 605 605 605 605 23 605 605 605 605 605 605 605 605 6 7 605 39 605 605 605 27 24 605 605 605 605 10 605 31 605 605 605
605 605 605 605 25 605 605 3 605 26 605 93 112 605 42 61 605 14 64 605 88 605 605 31 605 605 605 605 605 605 605 28 605 66 605 49 605 32 605 25 52 605 0 605 605 605 605 605 605 605 31 605 9 83 15 605 605 53 605 29 605 21 605 605 605 605 605 605 43 12 36 605 29 38 605 605 605 605 79 605 87 605 605 605 605 70 605 605 69 49 21 605 78 605 75 605 605 605 605 605 605
41 28 605 605 605 28 605 605 43 605 605 27 605 605 605 605 17 605 605 605 24 605 15 605 605 605 26 30 22 25 605 605 44 11 605 605 605 36 605 47 605 605 605 0 605 605 36 605 34 605 605 11 605 18 605 605 605 605 605 605 605 605 19 43 44 14 605 42 30 60 35 605 40 605 605 605 605 35 605 605 605 25 605 605 605 605 38 23 605 605 605 14 24 605 605 38 15 605 605 605 16
605 73 605 26 605 605 18 605 30 605 605 605 17 605 605 605 605 605 605 605 605 605 605 605 605 605 605 605 605 605 605 605 605 605 27 605 605 605 605 605 605 605 605 605 0 30 605 7 605 605 605 605 605 605 605 605 605 605 21 605 24 605 605 605 605 605 17 36 605 605 605 605 605 605 605 23 2 605 87 3 47 605 605 605 24 605 605 605 605 605 605 605 605 18 605 605 605 605 19 26 605
605 44 605 605 605 605 21 605 1 605 605 47 605 605 605 605 605 605 605 605 605 605 34 605 605 605 39 605 605 43 605 605 605 605 4 605 605 605 605 605 605 605 605 605 30 0 605 24 31 605 605 605 605 605 605 605 605 605 27 605 16 605 605 17 31 605 605 8 605 605 605 605 605 605 605 24 28 20 605 32 605 605 605 605 19 605 22 29 605 605 605 43 605 36 605 605 33 605 13 9 605
22 605 605 605 21 8 605 36 605 14 605 605 605 23 19 605 23 605 605 605 605 605 605 22 13 15 605 26 27 605 605 605 31 40 605 605 5 17 15 31 605 14 605 36 605 605 0 605 30 605 7 26 605 605 605 605 7 605 605 13 605 21 20 605 605 27 605 605 31 37 28 605 13 605 605 605 605 605 605 605 605 14 9 13 605 605 605 605 605 605 29 605 605 605 605 8 605 605 605 605 25
605 67 605 605 605 605 18 605 25 605 605 71 23 605 605 605 605 605 605 605 605 605 605 605 605 605 62 605 605 67 605 605 605 605 21 605 605 605 605 605 605 605 605 605 7 24 605 0 605 605 605 605 605 605 605 605 605 605 23 605 23 605 605 29 605 605 23 29 605 605 605 605 605 605 605 24 5 37 605 10 605 605 605 605 24 605 605 53 605 605 605 605 605 23 605 605 605 605 16 19 605
13 605 41 35 605 26 31 605 31 605 605 605 605 14 605 605 20 605 605 40 605 46 36 605 605 30 47 47 43 605 33 605 11 44 605 605 30 44 28 605 605 605 605 34 605 31 30 605 0 35 605 31 605 605 605 605 605 605 31 605 25 605 20 18 11 20 605 36 605 605 605 605 42 605 30 27 605 11 605 605 42 33 28 25 24 605 10 38 605 605 605 43 605 605 605 24 19 36 31 605 36
22 605 16 46 605 605 605 605 605 40 16 605 605 21 14 24 605 41 22 30 605 22 605 605 19 16 605 605 605 605 34 31 25 605 605 10 26 605 15 605 7 18 605 605 605 605 605 605 35 0 33 605 47 605 40 24 29 24 605 29 605 33 42 605 32 605 605 605 605 605 605 21 605 22 39 605 605 605 38 605 33 605 22 18 605 22 605 605 22 18 34 605 605 605 24 25 605 15 605 605 605
29 605 605 605 15 14 605 29 605 7 18 605 605 605 20 605 605 605 605 605 605 605 605 18 15 18 605 25 28 605 605 29 605 605 605 35 9 14 19 25 36 15 31 605 605 605 7 605 605 33 0 30 28 605 25 605 5 605 605 8 605 15 26 605 605 605 605 605 605 30 605 605 8 32 605 605 605 605 605 605 605 17 13 18 605 605 605 605 605 605 23 605 58 605 605 14 605 605 605 605 28
35 605 605 605 31 18 605 605 605 32 605 38 605 36 605 605 12 605 605 605 34 605 26 27 605 605 37 20 13 36 605 605 40 15 605 605 30 25 605 37 605 605 605 11 605 605 26 605 31 605 30 0 605 29 605 605 32 605 605 605 605 605 12 605 42 13 605 605 22 50 25 605 28 605 605 605 605 37 605 605 605 14 32 35 605 605 39 34 605 605 605 26 30 605 605 29 17 605 605 605 6
605 605 605 605 27 605 605 6 605 24 36 605 105 605 34 52 605 6 55 605 605 605 605 605 33 37 605 605 605 605 605 19 605 605 605 41 605 605 39 29 44 34 9 605 605 605 605 605 605 47 28 605 0 605 7 605 29 45 605 23 605 15 605 605 605 605 605 605 605 19 605 605 27 30 605 605 605 605 71 605 80 605 605 605 605 61 605 605 60 41 13 605 80 605 67 605 605 605 605 605 605
605 13 605 605 58 605 605 82 605 60 605 10 605 605 605 605 34 605 605 605 6 605 15 53 605 605 14 43 35 11 605 605 605 18 605 605 605 605 605 60 605 605 83 18 605 605 605 605 605 605 605 29 605 0 605 605 605 605 605 605 605 605 37 605 605 31 605 44 42 75 48 605 605 605 605 605 605 605 605 605 605 42 605 605 605 605 605 20 605 605 605 6 15 605 605 605 30 605 605 54 31
605 605 605 605 27 605 605 12 605 23 31 605 605 605 28 46 605 1 605 605 605 605 605 605 28 31 605 605 605 605 605 13 605 605 605 34 605 605 34 605 37 29 15 605 605 605 605 605 605 40 25 605 7 605 0 605 25 39 605 19 605 10 605 605 605 605 605 605 605 25 605 605 26 23 605 605 605 605 64 605 605 605 605 605 605 605 605 605 605 34 6 605 605 605 605 605 605 605 605 605 605
605 605 9 43 605 605 605 605 605 605 605 605 55 40 37 21 605 605 16 20 605 4 605 605 605 605 605 605 605 605 29 605 39 605 605 26 605 605 605 605 23 605 605 605 605 605 605 605 605 24 605 605 605 605 605 0 605 27 50 605 605 605 605 605 43 605 54 605 605 605 605 4 605 605 38 605 605 605 19 67 22 605 605 605 605 8 605 605 9 27 605 605 605 51 1 605 605 14 605 605 605
26 605 605 605 20 15 605 31 605 12 13 605 605 605 16 605 605 605 605 605 605 605 605 605 10 13 605 30 32 605 605 26 605 605 605 30 6 18 15 605 31 11 605 605 605 605 7 605 605 29 5 32 29 605 25 605 0 605 605 6 605 15 27 605 605 605 605 605 605 34 605 605 12 28 605 605 605 605 605 605 605 20 9 14 605 605 605 605 605 605 22 605 605 605 605 12 605 605 605 605 31
605 605 27 65 59 605 605 50 605 51 34 605 80 605 28 8 605 39 12 44 605 605 605 605 35 34 605 605 605 605 52 26 605 605 605 15 605 605 35 67 17 34 53 605 605 605 605 605 605 24 605 605 45 605 39 27 605 0 605 39 605 38 605 605 605 605 79 605 605 63 605 27 605 16 605 605 605 605 26 90 47 605 605 605 605 20 605 605 19 7 33 605 103 605 27 605 605 605 605 605 605
605 605 605 10 605 605 7 605 27 605 605 605 18 605 605 605 605 605 605 32 605 605 605 605 605 605 605 605 605 605 21 605 29 605 26 605 605 605 605 605 605 605 605 605 21 27 605 23 31 605 605 605 605 605 605 50 605 605 0 605 12 605 605 17 23 605 17 605 605 605 605 605 605 605 12 4 20 605 69 20 30 605 605 605 9 605 22 605 605 605 605 605 605 11 51 605 605 40 14 29 605
605 605 45 605 21 21 605 26 605 12 14 605 605 30 15 605 605 20 45 605 605 605 605 25 11 15 605 605 605 605 605 21 605 605 605 28 11 21 17 30 29 12 29 605 605 605 13 605 605 29 8 605 23 605 19 605 6 39 605 0 605 9 605 605 605 605 605 605 605 31 605 605 14 24 605 605 605 605 605 605 605 25 13 17 605 48 605 605 605 32 16 605 67 605 605 17 605 43 605 605 605
605 57 605 21 605 605 8 605 16 605 605 605 28 605 605 605 605 605 605 605 605 605 44 605 605 605 51 605 605 605 29 605 27 605 17 605 605 605 605 605 605 605 605 605 24 16 605 23 25 605 605 605 605 605 605 605 605 605 12 605 0 605 605 7 20 605 27 24 605 605 605 605 605 605 21 8 23 15 605 26 605 605 605 605 3 605 15 41 605 605 605 605 605 22 605 605 35 605 7 20 605
605 605 605 605 22 605 605 18 605 15 22 605 605 605 21 44 605 11 605 605 605 605 605 27 19 22 605 605 605 605 605 15 605 605 605 30 20 25 25 29 32 20 21 605 605 605 21 605 605 33 15 605 15 605 10 605 15 38 605 9 605 0 605 605 605 605 605 605 605 26 605 605 18 22 605 605 605 605 63 605 605 32 22 605 605 605 605 605 605 32 8 605 72 605 605 605 605 605 605 605 605
23 605 605 605 33 12 605 605 43 30 605 605 605 24 605 605 3 605 605 605 605 605 29 30 30 29 605 27 23 605 52 605 28 26 605 605 23 26 28 605 605 29 605 19 605 605 20 605 20 42 26 12 605 37 605 605 27 605 605 605 605 605 0 36 30 7 605 605 31 605 32 605 27 605 50 46 605 28 605 605 605 14 24 25 43 605 29 35 605 605 605 32 41 605 605 19 13 49 605 605 16
29 53 605 25 605 605 14 605 16 605 605 605 605 29 605 605 34 605 605 40 605 605 39 605 605 605 47 605 605 605 30 605 22 605 19 605 605 605 605 605 605 605 605 43 605 17 605 29 18 605 605 605 605 605 605 605 605 605 17 605 7 605 36 0 15 32 605 24 605 605 605 605 605 605 23 13 30 8 605 33 40 605 605 605 8 605 8 37 605 605 605 605 605 28 605 605 28 43 13 23 605
15 605 34 25 605 35 24 605 31 605 605 605 39 15 605 605 30 605 605 30 605 39 45 605 605 605 605 605 605 605 23 605 7 605 605 605 605 605 30 605 605 605 605 44 605 31 605 605 11 32 605 42 605 605 605 43 605 605 23 605 20 605 30 15 0 30 38 38 605 605 605 605 605 605 20 19 41 14 62 43 31 42 605 28 18 605 10 46 605 605 605 605 605 32 43 29 29 29 27 605 605
26 605 605 605 605 19 605 605 37 605 605 605 605 27 605 605 4 605 605 605 605 605 22 605 605 605 35 32 26 36 53 605 30 24 605 605 605 33 605 605 605 605 605 14 605 605 27 605 20 605 605 13 605 31 605 605 605 605 605 605 605 605 7 32 30 0 605 39 34 605 605 605 35 605 50 44 605 24 605 605 605 21 605 31 40 605 26 28 605 605 605 26 38 605 605 26 5 53 605 605 18
605 605 605 15 605 605 20 605 605 605 605 605 1 605 605 74 605 605 69 35 605 52 605 605 605 605 605 605 605 605 27 605 44 605 605 605 605 605 605 605 605 605 605 605 17 605 605 23 605 605 605 605 605 605 605 54 605 79 17 605 27 605 605 605 38 605 0 605 605 605 605 53 605 605 21 21 18 605 72 15 32 605 605 605 25 61 605 605 63 605 605 605 605 6 55 605 605 48 26 605 605
605 38 605 605 605 605 29 605 8 605 605 41 605 605 605 605 605 605 605 605 45 605 30 605 605 605 32 605 605 37 605 605 605 53 9 605 605 605 605 605 605 605 605 42 36 8 605 29 36 605 605 605 605 44 605 605 605 605 605 605 24 605 605 24 38 39 605 0 605 605 605 605 605 605 605 605 34 26 605 605 605 605 605 605 27 605 29 24 605 605 605 39 58 605 605 605 33 605 21 10 605
605 54 605 605 20 28 605 43 605 26 605 52 605 605 605 605 32 605 605 605 46 605 45 14 605 605 54 5 9 52 605 605 605 24 605 605 605 16 605 19 605 605 43 30 605 605 31 605 605 605 605 22 605 42 605 605 605 605 605 605 605 605 31 605 605 34 605 605 0 33 7 605 23 605 605 605 605 605 605 605 605 19 605 605 605 605 605 605 605 605 605 41 35 605 605 605 39 605 605 605 17
605 87 605 605 19 605 605 14 605 23 605 84 605 605 46 70 605 24 605 605 80 605 605 23 42 605 605 32 39 84 605 37 605 57 605 605 605 26 605 14 605 605 12 60 605 605 37 605 605 605 30 50 19 75 25 605 34 63 605 31 605 26 605 605 605 605 605 605 33 0 27 605 25 47 605 605 605 605 88 605 605 38 605 605 605 605 605 605 605 58 30 73 68 605 605 605 605 605 605 605 45
605 605 605 605 13 26 605 36 605 20 605 58 605 605 605 605 605 605 605 605 53 605 605 8 605 605 605 5 13 605 605 605 605 30 605 605 605 11 605 12 605 605 36 35 605 605 28 605 605 605 605 25 605 48 605 605 605 605 605 605 605 605 32 605 605 605 605 605 7 27 0 605 18 605 605 605 605 605 605 605 605 18 605 605 605 605 605 605 605 605 605 47 41 605 605 605 605 605 605 605 20
605 605 5 40 605 605 605 605 605 605 605 605 54 36 34 22 605 605 16 18 605 1 605 605 605 605 605 605 605 605 27 605 35 605 605 23 605 605 36 605 21 605 605 605 605 605 605 605 605 21 605 605 605 605 605 4 605 27 605 605 605 605 605 605 605 605 53 605 605 605 605 0 605 605 605 605 605 605 23 605 20 605 605 605 605 9 605 605 11 26 605 605 605 605 5 605 605 10 605 605 605
35 605 605 605 8 17 605 27 605 4 605 605 605 605 28 605 31 605 605 605 605 605 605 10 22 605 605 19 23 605 605 605 605 40 605 605 16 7 605 18 605 605 29 40 605 605 13 605 42 605 8 28 27 605 26 605 12 605 605 14 605 18 27 605 605 35 605 605 23 25 18 605 0 605 605 605 605 605 605 605 605 15 20 25 605 605 605 605 605 605 26 605 54 605 605 21 605 605 605 605 25
605 605 34 605 605 605 605 35 605 35 23 605 83 39 18 23 605 24 25 605 605 605 605 605 23 24 605 605 605 605 605 11 605 605 605 13 30 605 25 605 17 23 38 605 605 605 605 605 605 22 32 605 30 605 23 605 28 16 605 24 605 22 605 605 605 605 605 605 605 47 605 605 605 0 605 605 605 605 41 605 54 605 29 29 605 32 605 605 31 11 17 605 605 605 38 605 605 35 605 605 605
32 605 33 7 605 605 19 605 37 605 605 605 22 32 605 605 50 605 605 19 605 34 605 605 605 605 605 605 605 605 9 605 24 605 605 605 605 605 605 605 605 605 605 605 605 605 605 605 30 39 605 605 605 605 605 38 605 605 12 605 21 605 50 23 20 50 21 605 605 605 605 605 605 605 0 13 32 28 57 31 18 605 605 605 18 605 25 605 605 605 605 605 605 15 38 605 47 29 26 605 605
34 605 605 13 605 605 6 605 24 605 605 605 22 34 605 605 45 605 605 32 605 605 605 605 605 605 605 605 605 605 22 605 26 605 24 605 605 605 605 605 605 605 605 605 23 24 605 24 27 605 605 605 605 605 605 605 605 605 4 605 8 605 46 13 19 44 21 605 605 605 605 605 605 605 13 0 23 20 605 24 32 605 605 605 5 605 18 605 605 605 605 605 605 15 605 605 41 40 13 27 605
605 71 605 26 605 605 17 605 28 605 605 605 18 605 605 605 605 605 605 605 605 605 605 605 605 605 605 605 605 605 605 605 605 605 25 605 605 605 605 605 605 605 605 605 2 28 605 5 605 605 605 605 605 605 605 605 605 605 20 605 23 605 605 30 41 605 18 34 605 605 605 605 605 605 32 23 0 38 87 5 48 605 605 605 23 605 605 57 605 605 605 605 605 19 605 605 605 605 18 24 605
24 48 605 605 605 36 23 605 19 605 605 605 605 24 605 605 26 605 605 605 605 605 33 605 605 605 43 605 605 46 34 605 19 47 23 605 605 605 605 605 605 605 605 35 605 20 605 37 11 605 605 37 605 605 605 605 605 605 605 605 15 605 28 8 14 24 605 26 605 605 605 605 605 605 28 20 38 0 605 605 605 42 605 36 16 605 4 32 605 605 605 41 605 605 605 35 20 43 21 28 605
605 605 28 61 605 605 76 76 605 605 605 605 72 605 48 18 605 65 17 38 605 23 605 605 605 605 605 605 605 605 48 52 57 605 605 34 605 605 605 605 33 605 79 605 87 605 605 605 605 38 605 605 71 605 64 19 605 26 69 605 605 63 605 605 62 605 72 605 605 88 605 23 605 41 57 605 87 605 0 85 40 605 605 605 605 16 605 605 15 30 59 605 605 69 19 605 605 33 605 605 605
605 605 605 25 605 605 19 605 33 605 605 605 14 605 605 86 605 605 81 48 605 605 605 605 605 605 605 605 605 605 38 605 605 605 29 605 605 605 605 605 605 605 605 605 3 32 605 10 605 605 605 605 605 605 605 67 605 90 20 605 26 605 605 33 43 605 15 605 605 605 605 605 605 605 31 24 5 605 85 0 46 605 605 605 25 74 605 605 76 605 605 605 605 16 68 605 605 605 21 28 605
37 605 20 22 605 605 37 605 605 605 605 605 33 37 605 42 605 605 37 3 605 19 605 605 605 605 605 605 605 605 10 64 31 605 605 605 605 605 605 605 37 605 87 605 47 605 605 605 42 33 605 605 80 605 605 22 605 47 30 605 605 605 605 40 31 605 32 605 605 605 605 20 605 54 18 32 48 605 40 46 0 605 605 605 36 29 40 605 31 45 605 605 605 29 22 605 605 19 605 605 605
31 605 605 605 19 9 605 42 605 18 605 605 605 32 605 605 17 605 605 605 605 605 39 16 27 605 605 15 13 605 605 605 38 27 605 605 19 12 605 26 605 605 605 25 605 605 14 605 33 605 17 14 605 42 605 605 20 605 605 25 605 32 14 605 42 21 605 605 19 38 18 605 15 605 605 605 605 42 605 605 605 0 22 26 605 605 42 605 605 605 605 39 42 605 605 20 26 605 605 605 11
17 605 605 605 605 14 605 605 605 20 7 605 605 17 12 605 27 605 605 605 605 605 605 605 6 7 605 605 605 605 605 30 25 605 605 26 4 605 7 605 26 6 605 605 605 605 9 605 28 22 13 32 605 605 605 605 9 605 605 13 605 22 24 605 605 605 605 605 605 605 605 605 20 29 605 605 605 605 605 605 605 22 0 5 605 605 605 605 605 605 27 605 605 605 605 4 605 34 605 605 605
13 605 33 605 605 18 605 605 605 605 5 605 605 13 11 605 28 605 605 42 605 39 605 605 7 5 605 605 605 605 41 32 21 605 605 24 9 605 3 605 23 7 605 605 605 605 13 605 25 18 18 35 605 605 605 605 14 605 605 17 605 605 25 605 28 31 605 605 605 605 605 605 25 29 605 605 605 36 605 605 605 26 5 0 605 605 34 605 605 605 30 605 605 605 605 6 34 30 605 605 605
34 605 605 18 605 605 7 605 19 605 605 605 26 34 605 605 42 605 605 37 605 605 605 605 605 605 605 605 605 605 26 605 26 605 20 605 605 605 605 605 605 605 605 605 24 19 605 24 24 605 605 605 605 605 605 605 605 605 9 605 3 605 43 8 18 40 25 27 605 605 605 605 605 605 18 5 23 16 605 25 36 605 605 605 0 605 15 44 605 605 605 605 605 20 605 605 37 43 9 23 605
605 605 12 49 605 605 605 605 605 605 38 605 62 41 34 13 605 605 8 27 605 10 605 605 40 37 605 605 605 605 36 43 41 605 605 21 605 605 37 605 19 39 70 605 605 605 605 605 605 22 605 605 61 605 605 8 605 20 605 48 605 605 605 605 605 605 61 605 605 605 605 9 605 32 605 605 605 605 16 74 29 605 605 605 605 0 605 605 2 21 48 605 605 605 7 605 605 17 605 605 605
22 605 605 28 605 36 21 605 22 605 605 605 605 22 605 605 27 605 605 39 605 605 36 605 605 605 46 605 605 605 30 605 16 605 605 605 605 605 605 605 605 605 605 38 605 22 605 605 10 605 605 39 605 605 605 605 605 605 22 605 15 605 29 8 10 26 605 29 605 605 605 605 605 605 25 18 605 4 605 605 40 42 605 34 15 605 0 36 605 605 605 605 605 605 605 34 23 39 21 605 605
50 16 605 605 605 605 48 605 28 605 605 18 605 605 605 605 32 605 605 605 22 605 9 605 605 605 10 605 605 14 605 605 49 31 32 605 605 605 605 605 605 605 605 23 605 29 605 53 38 605 605 34 605 20 605 605 605 605 605 605 41 605 35 37 46 28 605 24 605 605 605 605 605 605 605 605 57 32 605 605 605 605 605 605 44 605 36 0 605 605 605 16 605 605 605 605 24 605 41 34 605
605 605 14 51 605 605 605 605 605 605 605 605 64 605 34 12 605 605 7 28 605 12 605 605 605 605 605 605 605 605 37 42 605 605 605 20 605 605 605 605 19 605 69 605 605 605 605 605 605 22 605 605 60 605 605 9 605 19 605 605 605 605 605 605 605 605 63 605 605 605 605 11 605 31 605 605 605 605 15 76 31 605 605 605 605 2 605 605 0 20 605 605 605 605 9 605 605 18 605 605 605
605 605 25 605 605 605 605 46 605 605 27 605 77 39 21 12 605 35 14 605 605 28 605 605 28 27 605 605 605 605 605 22 605 605 605 8 605 605 28 605 11 27 49 605 605 605 605 605 605 18 605 605 41 605 34 27 605 7 605 32 605 32 605 605 605 605 605 605 605 58 605 26 605 11 605 605 605 605 30 605 45 605 605 605 605 21 605 605 20 0 28 605 605 605 27 605 605 27 605 605 605
605 605 49 605 29 605 605 18 605 23 26 605 605 43 23 40 605 7 43 605 605 605 605 605 23 26 605 605 605 605 605 8 605 605 605 28 26 605 28 605 31 24 21 605 605 605 29 605 605 34 23 605 13 605 6 605 22 33 605 16 605 8 605 605 605 605 605 605 605 30 605 605 26 17 605 605 605 605 59 605 605 605 27 30 605 48 605 605 605 28 0 605 605 605 605 605 605 48 605 605 605
605 13 605 605 605 605 605 605 43 605 605 12 605 605 605 605 30 605 605 605 10 605 9 605 605 605 13 42 34 11 605 605 605 18 47 605 605 605 605 59 605 605 605 14 605 43 605 605 43 605 605 26 605 6 605 605 605 605 605 605 605 605 32 605 605 26 605 39 41 73 47 605 605 605 605 605 605 41 605 605 605 39 605 605 605 605 605 16 605 605 605 0 19 605 605 605 25 605 605 49 29
605 26 605 605 53 605 605 78 605 58 605 22 605 605 605 605 40 605 605 605 16 605 28 48 605 605 29 37 31 25 605 605 605 15 605 605 605 48 605 53 605 605 78 24 605 605 605 605 605 605 58 30 80 15 605 605 605 103 605 67 605 72 41 605 605 38 605 58 35 68 41 605 54 605 605 605 605 605 605 605 605 42 605 605 605 605 605 605 605 605 605 19 0 605 605 605 39 605 605 69 30
605 605 605 9 605 605 15 605 36 605 605 605 7 605 605 605 605 605 605 31 605 605 605 605 605 605 605 605 605 605 22 605 38 605 34 605 605 605 605 605 605 605 605 605 18 36 605 23 605 605 605 605 605 605 605 51 605 605 11 605 22 605 605 28 32 605 6 605 605 605 605 605 605 605 15 15 19 605 69 16 29 605 605 605 20 605 605 605 605 605 605 605 605 0 51 605 605 43 22 36 605
605 605 10 43 605 605 605 605 605 605 605 605 56 605 38 21 605 605 15 20 605 5 605 605 605 605 605 605 605 605 30 49 39 605 605 26 605 605 605 605 23 605 75 605 605 605 605 605 605 24 605 605 67 605 605 1 605 27 51 605 605 605 605 605 43 605 55 605 605 605 605 5 605 38 38 605 605 605 19 68 22 605 605 605 605 7 605 605 9 27 605 605 605 51 0 605 605 15 605 605 605
15 605 605 605 29 11 605 605 605 22 10 605 605 15 16 605 22 605 605 605 605 605 605 605 10 10 605 34 33 605 45 605 23 44 605 605 6 25 9 605 605 10 605 38 605 605 8 605 24 25 14 29 605 605 605 605 12 605 605 17 605 605 19 605 29 26 605 605 605 605 605 605 21 605 605 605 605 35 605 605 605 20 4 6 605 605 34 605 605 605 605 605 605 605 605 0 30 35 605 605 30
28 35 605 605 605 24 605 605 32 605 605 605 605 29 605 605 9 605 605 605 605 605 19 605 605 605 31 605 31 33 51 605 30 26 37 605 605 605 605 605 605 605 605 15 605 33 605 605 19 605 605 17 605 30 605 605 605 605 605 605 35 605 13 28 29 5 605 33 39 605 605 605 605 605 47 41 605 20 605 605 605 26 605 34 37 605 23 24 605 605 605 25 39 605 605 30 0 54 39 41 23
27 605 5 35 605 605 605 605 605 605 29 605 49 26 28 605 51 605 22 16 605 10 605 605 32 29 605 605 605 605 21 45 25 605 605 22 605 605 28 605 19 31 605 605 605 605 605 605 36 15 605 605 605 605 605 14 605 605 40 43 605 605 49 43 29 53 48 605 605 605 605 10 605 35 29 40 605 43 33 605 19 605 34 30 43 17 39 605 18 27 48 605 605 43 15 35 54 0 605 605 605
605 57 605 24 605 605 8 605 14 605 605 60 27 605 605 605 605 605 605 605 605 605 46 605 605 605 51 605 605 56 605 605 605 605 12 605 605 605 605 605 605 605 605 605 19 13 605 16 31 605 605 605 605 605 605 605 605 605 14 605 7 605 605 13 27 605 26 21 605 605 605 605 605 605 26 13 18 21 605 21 605 605 605 605 9 605 21 41 605 605 605 605 605 22 605 605 39 605 0 15 605
605 48 605 605 605 605 22 605 9 605 605 51 605 605 605 605 605 605 605 605 56 605 41 605 605 605 43 605 605 47 605 605 605 605 5 605 605 605 605 605 605 605 605 605 26 9 605 19 605 605 605 605 605 54 605 605 605 605 29 605 20 605 605 23 605 605 605 10 605 605 605 605 605 605 605 27 24 28 605 28 605 605 605 605 23 605 605 34 605 605 605 49 69 36 605 605 41 605 15 0 605
38 605 605 605 27 18 605 605 605 29 605 41 605 605 605 605 16 605 605 605 37 605 30 22 605 605 41 15 8 40 605 605 605 15 605 605 30 20 605 31 605 605 605 16 605 605 25 605 36 605 28 6 605 31 605 605 31 605 605 605 605 605 16 605 605 18 605 605 17 45 20 605 25 605 605 605 605 605 605 605 605 11 605 605 605 605 605 605 605 605 605 29 30 605 605 30 23 605 605 605 0
EOF
